NAME          
ROWS
 N  OBJ
 L  c2
 L  c3
 L  c4
 L  c5
 L  c6
 G  c1
COLUMNS
    ss[1]     c1        1
    ss[1]     OBJ       1000
    s[1]      c2        1
    s[1]      OBJ       -1000
    s[2]      c3        1
    s[2]      OBJ       -1000
    s[3]      c4        1
    s[3]      OBJ       -1000
    s[4]      c5        1
    s[4]      OBJ       -1000
    s[5]      c6        1
    s[5]      OBJ       -1000
    MARKER    'MARKER'                 'INTORG'
    x[1]      c2        666
    x[1]      c3        716
    x[1]      c4        923
    x[1]      c5        742
    x[1]      c6        827
    x[1]      c1        556
    x[1]      OBJ       -1107
    x[2]      c2        688
    x[2]      c3        97
    x[2]      c4        385
    x[2]      c5        496
    x[2]      c6        439
    x[2]      c1        125
    x[2]      OBJ       -1164
    x[3]      c2        983
    x[3]      c3        257
    x[3]      c4        266
    x[3]      c5        589
    x[3]      c6        328
    x[3]      c1        736
    x[3]      OBJ       -650
    x[4]      c2        479
    x[4]      c3        968
    x[4]      c4        374
    x[4]      c5        804
    x[4]      c6        494
    x[4]      c1        557
    x[4]      OBJ       -808
    x[5]      c2        117
    x[5]      c3        460
    x[5]      c4        886
    x[5]      c5        302
    x[5]      c6        745
    x[5]      c1        301
    x[5]      OBJ       -1211
    x[6]      c2        68
    x[6]      c3        815
    x[6]      c4        895
    x[6]      c5        958
    x[6]      c6        386
    x[6]      c1        6
    x[6]      OBJ       -1614
    x[7]      c2        357
    x[7]      c3        704
    x[7]      c4        107
    x[7]      c5        873
    x[7]      c6        124
    x[7]      c1        111
    x[7]      OBJ       -1295
    x[8]      c2        972
    x[8]      c3        32
    x[8]      c4        647
    x[8]      c5        201
    x[8]      c6        996
    x[8]      c1        16
    x[8]      OBJ       -1423
    x[9]      c2        505
    x[9]      c3        961
    x[9]      c4        138
    x[9]      c5        818
    x[9]      c6        847
    x[9]      c1        704
    x[9]      OBJ       -1051
    x[10]     c2        865
    x[10]     c3        767
    x[10]     c4        39
    x[10]     c5        391
    x[10]     c6        440
    x[10]     c1        952
    x[10]     OBJ       -242
    x[11]     c2        36
    x[11]     c3        253
    x[11]     c4        461
    x[11]     c5        491
    x[11]     c6        943
    x[11]     c1        408
    x[11]     OBJ       -1097
    x[12]     c2        603
    x[12]     c3        693
    x[12]     c4        866
    x[12]     c5        166
    x[12]     c6        999
    x[12]     c1        492
    x[12]     OBJ       -1231
    x[13]     c2        982
    x[13]     c3        737
    x[13]     c4        524
    x[13]     c5        133
    x[13]     c6        181
    x[13]     c1        163
    x[13]     OBJ       -1429
    x[14]     c2        727
    x[14]     c3        316
    x[14]     c4        500
    x[14]     c5        125
    x[14]     c6        500
    x[14]     c1        938
    x[14]     OBJ       -243
    x[15]     c2        396
    x[15]     c3        780
    x[15]     c4        589
    x[15]     c5        858
    x[15]     c6        574
    x[15]     c1        315
    x[15]     OBJ       -1323
    x[16]     c2        23
    x[16]     c3        233
    x[16]     c4        586
    x[16]     c5        858
    x[16]     c6        355
    x[16]     c1        949
    x[16]     OBJ       -468
    x[17]     c2        201
    x[17]     c3        190
    x[17]     c4        410
    x[17]     c5        516
    x[17]     c6        934
    x[17]     c1        670
    x[17]     OBJ       -511
    x[18]     c2        67
    x[18]     c3        414
    x[18]     c4        595
    x[18]     c5        468
    x[18]     c6        472
    x[18]     c1        1000
    x[18]     OBJ       -102
    x[19]     c2        423
    x[19]     c3        393
    x[19]     c4        687
    x[19]     c5        113
    x[19]     c6        76
    x[19]     c1        457
    x[19]     OBJ       -717
    x[20]     c2        272
    x[20]     c3        143
    x[20]     c4        98
    x[20]     c5        688
    x[20]     c6        693
    x[20]     c1        816
    x[20]     OBJ       -359
    x[21]     c2        234
    x[21]     c3        536
    x[21]     c4        585
    x[21]     c5        40
    x[21]     c6        122
    x[21]     c1        357
    x[21]     OBJ       -662
    x[22]     c2        567
    x[22]     c3        274
    x[22]     c4        241
    x[22]     c5        303
    x[22]     c6        447
    x[22]     c1        495
    x[22]     OBJ       -879
    x[23]     c2        168
    x[23]     c3        69
    x[23]     c4        308
    x[23]     c5        568
    x[23]     c6        881
    x[23]     c1        916
    x[23]     OBJ       -605
    x[24]     c2        798
    x[24]     c3        87
    x[24]     c4        436
    x[24]     c5        489
    x[24]     c6        847
    x[24]     c1        852
    x[24]     OBJ       -686
    x[25]     c2        693
    x[25]     c3        693
    x[25]     c4        368
    x[25]     c5        727
    x[25]     c6        971
    x[25]     c1        614
    x[25]     OBJ       -759
    x[26]     c2        2
    x[26]     c3        449
    x[26]     c4        773
    x[26]     c5        149
    x[26]     c6        500
    x[26]     c1        161
    x[26]     OBJ       -927
    x[27]     c2        317
    x[27]     c3        840
    x[27]     c4        523
    x[27]     c5        709
    x[27]     c6        644
    x[27]     c1        60
    x[27]     OBJ       -1267
    x[28]     c2        576
    x[28]     c3        480
    x[28]     c4        223
    x[28]     c5        510
    x[28]     c6        116
    x[28]     c1        382
    x[28]     OBJ       -1070
    x[29]     c2        393
    x[29]     c3        662
    x[29]     c4        978
    x[29]     c5        747
    x[29]     c6        679
    x[29]     c1        373
    x[29]     OBJ       -1051
    x[30]     c2        990
    x[30]     c3        906
    x[30]     c4        141
    x[30]     c5        208
    x[30]     c6        315
    x[30]     c1        570
    x[30]     OBJ       -889
    x[31]     c2        284
    x[31]     c3        877
    x[31]     c4        47
    x[31]     c5        605
    x[31]     c6        648
    x[31]     c1        182
    x[31]     OBJ       -1398
    x[32]     c2        235
    x[32]     c3        320
    x[32]     c4        386
    x[32]     c5        55
    x[32]     c6        378
    x[32]     c1        934
    x[32]     OBJ       -154
    x[33]     c2        602
    x[33]     c3        890
    x[33]     c4        766
    x[33]     c5        549
    x[33]     c6        450
    x[33]     c1        129
    x[33]     OBJ       -1229
    x[34]     c2        374
    x[34]     c3        791
    x[34]     c4        729
    x[34]     c5        411
    x[34]     c6        187
    x[34]     c1        542
    x[34]     OBJ       -845
    x[35]     c2        471
    x[35]     c3        464
    x[35]     c4        748
    x[35]     c5        131
    x[35]     c6        368
    x[35]     c1        767
    x[35]     OBJ       -749
    x[36]     c2        196
    x[36]     c3        316
    x[36]     c4        628
    x[36]     c5        83
    x[36]     c6        427
    x[36]     c1        964
    x[36]     OBJ       -115
    x[37]     c2        30
    x[37]     c3        78
    x[37]     c4        47
    x[37]     c5        785
    x[37]     c6        225
    x[37]     c1        896
    x[37]     OBJ       -327
    x[38]     c2        268
    x[38]     c3        800
    x[38]     c4        826
    x[38]     c5        273
    x[38]     c6        57
    x[38]     c1        350
    x[38]     OBJ       -938
    x[39]     c2        47
    x[39]     c3        576
    x[39]     c4        234
    x[39]     c5        396
    x[39]     c6        458
    x[39]     c1        178
    x[39]     OBJ       -1249
    x[40]     c2        516
    x[40]     c3        728
    x[40]     c4        430
    x[40]     c5        445
    x[40]     c6        274
    x[40]     c1        557
    x[40]     OBJ       -709
    x[41]     c2        362
    x[41]     c3        475
    x[41]     c4        123
    x[41]     c5        417
    x[41]     c6        182
    x[41]     c1        975
    x[41]     OBJ       -103
    x[42]     c2        963
    x[42]     c3        546
    x[42]     c4        265
    x[42]     c5        365
    x[42]     c6        395
    x[42]     c1        70
    x[42]     OBJ       -1166
    x[43]     c2        570
    x[43]     c3        845
    x[43]     c4        909
    x[43]     c5        873
    x[43]     c6        396
    x[43]     c1        226
    x[43]     OBJ       -1195
    x[44]     c2        174
    x[44]     c3        406
    x[44]     c4        143
    x[44]     c5        155
    x[44]     c6        613
    x[44]     c1        356
    x[44]     OBJ       -875
    x[45]     c2        226
    x[45]     c3        86
    x[45]     c4        395
    x[45]     c5        879
    x[45]     c6        47
    x[45]     c1        404
    x[45]     OBJ       -803
    x[46]     c2        281
    x[46]     c3        580
    x[46]     c4        863
    x[46]     c5        741
    x[46]     c6        337
    x[46]     c1        79
    x[46]     OBJ       -1327
    x[47]     c2        213
    x[47]     c3        856
    x[47]     c4        154
    x[47]     c5        426
    x[47]     c6        586
    x[47]     c1        833
    x[47]     OBJ       -665
    x[48]     c2        297
    x[48]     c3        927
    x[48]     c4        262
    x[48]     c5        742
    x[48]     c6        694
    x[48]     c1        616
    x[48]     OBJ       -902
    x[49]     c2        699
    x[49]     c3        325
    x[49]     c4        335
    x[49]     c5        755
    x[49]     c6        813
    x[49]     c1        575
    x[49]     OBJ       -875
    x[50]     c2        51
    x[50]     c3        655
    x[50]     c4        696
    x[50]     c5        118
    x[50]     c6        340
    x[50]     c1        987
    x[50]     OBJ       -530
    x[51]     c2        327
    x[51]     c3        85
    x[51]     c4        313
    x[51]     c5        26
    x[51]     c6        51
    x[51]     c1        340
    x[51]     OBJ       -603
    x[52]     c2        590
    x[52]     c3        690
    x[52]     c4        557
    x[52]     c5        24
    x[52]     c6        41
    x[52]     c1        794
    x[52]     OBJ       -379
    x[53]     c2        929
    x[53]     c3        95
    x[53]     c4        150
    x[53]     c5        88
    x[53]     c6        981
    x[53]     c1        321
    x[53]     OBJ       -885
    x[54]     c2        342
    x[54]     c3        4
    x[54]     c4        558
    x[54]     c5        534
    x[54]     c6        699
    x[54]     c1        337
    x[54]     OBJ       -846
    x[55]     c2        883
    x[55]     c3        193
    x[55]     c4        898
    x[55]     c5        62
    x[55]     c6        862
    x[55]     c1        580
    x[55]     OBJ       -710
    x[56]     c2        145
    x[56]     c3        552
    x[56]     c4        82
    x[56]     c5        17
    x[56]     c6        574
    x[56]     c1        920
    x[56]     OBJ       -93
    x[57]     c2        31
    x[57]     c3        840
    x[57]     c4        984
    x[57]     c5        455
    x[57]     c6        873
    x[57]     c1        425
    x[57]     OBJ       -1038
    x[58]     c2        753
    x[58]     c3        458
    x[58]     c4        246
    x[58]     c5        923
    x[58]     c6        738
    x[58]     c1        170
    x[58]     OBJ       -1130
    x[59]     c2        947
    x[59]     c3        995
    x[59]     c4        98
    x[59]     c5        293
    x[59]     c6        487
    x[59]     c1        955
    x[59]     OBJ       -435
    x[60]     c2        71
    x[60]     c3        491
    x[60]     c4        860
    x[60]     c5        640
    x[60]     c6        12
    x[60]     c1        581
    x[60]     OBJ       -759
    x[61]     c2        449
    x[61]     c3        7
    x[61]     c4        597
    x[61]     c5        856
    x[61]     c6        556
    x[61]     c1        739
    x[61]     OBJ       -424
    x[62]     c2        579
    x[62]     c3        518
    x[62]     c4        101
    x[62]     c5        919
    x[62]     c6        689
    x[62]     c1        622
    x[62]     OBJ       -734
    x[63]     c2        772
    x[63]     c3        284
    x[63]     c4        762
    x[63]     c5        751
    x[63]     c6        282
    x[63]     c1        473
    x[63]     OBJ       -1046
    x[64]     c2        876
    x[64]     c3        121
    x[64]     c4        607
    x[64]     c5        178
    x[64]     c6        1
    x[64]     c1        789
    x[64]     OBJ       -546
    x[65]     c2        755
    x[65]     c3        728
    x[65]     c4        530
    x[65]     c5        332
    x[65]     c6        31
    x[65]     c1        946
    x[65]     OBJ       -621
    x[66]     c2        342
    x[66]     c3        306
    x[66]     c4        657
    x[66]     c5        784
    x[66]     c6        5
    x[66]     c1        499
    x[66]     OBJ       -923
    x[67]     c2        30
    x[67]     c3        646
    x[67]     c4        340
    x[67]     c5        749
    x[67]     c6        787
    x[67]     c1        666
    x[67]     OBJ       -863
    x[68]     c2        809
    x[68]     c3        365
    x[68]     c4        104
    x[68]     c5        51
    x[68]     c6        348
    x[68]     c1        546
    x[68]     OBJ       -601
    x[69]     c2        24
    x[69]     c3        632
    x[69]     c4        943
    x[69]     c5        875
    x[69]     c6        286
    x[69]     c1        630
    x[69]     OBJ       -954
    x[70]     c2        336
    x[70]     c3        937
    x[70]     c4        783
    x[70]     c5        417
    x[70]     c6        361
    x[70]     c1        997
    x[70]     OBJ       -387
    x[71]     c2        217
    x[71]     c3        558
    x[71]     c4        621
    x[71]     c5        196
    x[71]     c6        123
    x[71]     c1        462
    x[71]     OBJ       -1000
    x[72]     c2        568
    x[72]     c3        48
    x[72]     c4        688
    x[72]     c5        727
    x[72]     c6        39
    x[72]     c1        750
    x[72]     OBJ       -625
    x[73]     c2        299
    x[73]     c3        229
    x[73]     c4        721
    x[73]     c5        950
    x[73]     c6        490
    x[73]     c1        841
    x[73]     OBJ       -695
    x[74]     c2        157
    x[74]     c3        303
    x[74]     c4        384
    x[74]     c5        483
    x[74]     c6        138
    x[74]     c1        795
    x[74]     OBJ       -352
    x[75]     c2        846
    x[75]     c3        666
    x[75]     c4        233
    x[75]     c5        809
    x[75]     c6        892
    x[75]     c1        2
    x[75]     OBJ       -1365
    x[76]     c2        183
    x[76]     c3        873
    x[76]     c4        689
    x[76]     c5        232
    x[76]     c6        829
    x[76]     c1        522
    x[76]     OBJ       -1127
    x[77]     c2        654
    x[77]     c3        881
    x[77]     c4        296
    x[77]     c5        101
    x[77]     c6        933
    x[77]     c1        778
    x[77]     OBJ       -710
    x[78]     c2        223
    x[78]     c3        411
    x[78]     c4        339
    x[78]     c5        745
    x[78]     c6        141
    x[78]     c1        42
    x[78]     OBJ       -1360
    x[79]     c2        10
    x[79]     c3        272
    x[79]     c4        209
    x[79]     c5        507
    x[79]     c6        758
    x[79]     c1        714
    x[79]     OBJ       -597
    x[80]     c2        870
    x[80]     c3        466
    x[80]     c4        122
    x[80]     c5        261
    x[80]     c6        679
    x[80]     c1        645
    x[80]     OBJ       -943
    x[81]     c2        835
    x[81]     c3        330
    x[81]     c4        599
    x[81]     c5        814
    x[81]     c6        47
    x[81]     c1        855
    x[81]     OBJ       -721
    x[82]     c2        808
    x[82]     c3        665
    x[82]     c4        624
    x[82]     c5        757
    x[82]     c6        98
    x[82]     c1        396
    x[82]     OBJ       -902
    x[83]     c2        508
    x[83]     c3        60
    x[83]     c4        861
    x[83]     c5        652
    x[83]     c6        729
    x[83]     c1        768
    x[83]     OBJ       -703
    x[84]     c2        977
    x[84]     c3        782
    x[84]     c4        866
    x[84]     c5        727
    x[84]     c6        982
    x[84]     c1        392
    x[84]     OBJ       -1446
    x[85]     c2        309
    x[85]     c3        450
    x[85]     c4        543
    x[85]     c5        658
    x[85]     c6        675
    x[85]     c1        141
    x[85]     OBJ       -1328
    x[86]     c2        997
    x[86]     c3        769
    x[86]     c4        810
    x[86]     c5        902
    x[86]     c6        749
    x[86]     c1        544
    x[86]     OBJ       -1259
    x[87]     c2        920
    x[87]     c3        583
    x[87]     c4        769
    x[87]     c5        421
    x[87]     c6        42
    x[87]     c1        847
    x[87]     OBJ       -729
    x[88]     c2        892
    x[88]     c3        427
    x[88]     c4        846
    x[88]     c5        731
    x[88]     c6        168
    x[88]     c1        263
    x[88]     OBJ       -1242
    x[89]     c2        749
    x[89]     c3        799
    x[89]     c4        955
    x[89]     c5        1000
    x[89]     c6        600
    x[89]     c1        325
    x[89]     OBJ       -1457
    x[90]     c2        355
    x[90]     c3        266
    x[90]     c4        642
    x[90]     c5        303
    x[90]     c6        192
    x[90]     c1        227
    x[90]     OBJ       -865
    x[91]     c2        819
    x[91]     c3        319
    x[91]     c4        561
    x[91]     c5        68
    x[91]     c6        337
    x[91]     c1        765
    x[91]     OBJ       -550
    x[92]     c2        186
    x[92]     c3        100
    x[92]     c4        922
    x[92]     c5        53
    x[92]     c6        163
    x[92]     c1        128
    x[92]     OBJ       -999
    x[93]     c2        46
    x[93]     c3        362
    x[93]     c4        994
    x[93]     c5        501
    x[93]     c6        264
    x[93]     c1        10
    x[93]     OBJ       -1399
    x[94]     c2        591
    x[94]     c3        213
    x[94]     c4        931
    x[94]     c5        782
    x[94]     c6        793
    x[94]     c1        973
    x[94]     OBJ       -621
    x[95]     c2        102
    x[95]     c3        307
    x[95]     c4        908
    x[95]     c5        718
    x[95]     c6        536
    x[95]     c1        162
    x[95]     OBJ       -1185
    x[96]     c2        859
    x[96]     c3        468
    x[96]     c4        329
    x[96]     c5        979
    x[96]     c6        843
    x[96]     c1        743
    x[96]     OBJ       -921
    x[97]     c2        935
    x[97]     c3        352
    x[97]     c4        366
    x[97]     c5        530
    x[97]     c6        715
    x[97]     c1        208
    x[97]     OBJ       -1267
    x[98]     c2        855
    x[98]     c3        873
    x[98]     c4        513
    x[98]     c5        824
    x[98]     c6        964
    x[98]     c1        223
    x[98]     OBJ       -1596
    x[99]     c2        334
    x[99]     c3        355
    x[99]     c4        274
    x[99]     c5        692
    x[99]     c6        651
    x[99]     c1        981
    x[99]     OBJ       -399
    x[100]    c2        968
    x[100]    c3        89
    x[100]    c4        868
    x[100]    c5        926
    x[100]    c6        619
    x[100]    c1        143
    x[100]    OBJ       -1508
RHS
    rhs       c2        24045
    rhs       c3        24345
    rhs       c4        26096
    rhs       c5        25634
    rhs       c6        24302
    rhs       c1        26324
RANGES
BOUNDS
 LO bounds    ss[1]     0
 PL bounds    ss[1]
 MI bounds    s[1]
 UP bounds    s[1]      0
 MI bounds    s[2]
 UP bounds    s[2]      0
 MI bounds    s[3]
 UP bounds    s[3]      0
 MI bounds    s[4]
 UP bounds    s[4]      0
 MI bounds    s[5]
 UP bounds    s[5]      0
 BV bounds    x[1]
 BV bounds    x[2]
 BV bounds    x[3]
 BV bounds    x[4]
 BV bounds    x[5]
 BV bounds    x[6]
 BV bounds    x[7]
 BV bounds    x[8]
 BV bounds    x[9]
 BV bounds    x[10]
 BV bounds    x[11]
 BV bounds    x[12]
 BV bounds    x[13]
 BV bounds    x[14]
 BV bounds    x[15]
 BV bounds    x[16]
 BV bounds    x[17]
 BV bounds    x[18]
 BV bounds    x[19]
 BV bounds    x[20]
 BV bounds    x[21]
 BV bounds    x[22]
 BV bounds    x[23]
 BV bounds    x[24]
 BV bounds    x[25]
 BV bounds    x[26]
 BV bounds    x[27]
 BV bounds    x[28]
 BV bounds    x[29]
 BV bounds    x[30]
 BV bounds    x[31]
 BV bounds    x[32]
 BV bounds    x[33]
 BV bounds    x[34]
 BV bounds    x[35]
 BV bounds    x[36]
 BV bounds    x[37]
 BV bounds    x[38]
 BV bounds    x[39]
 BV bounds    x[40]
 BV bounds    x[41]
 BV bounds    x[42]
 BV bounds    x[43]
 BV bounds    x[44]
 BV bounds    x[45]
 BV bounds    x[46]
 BV bounds    x[47]
 BV bounds    x[48]
 BV bounds    x[49]
 BV bounds    x[50]
 BV bounds    x[51]
 BV bounds    x[52]
 BV bounds    x[53]
 BV bounds    x[54]
 BV bounds    x[55]
 BV bounds    x[56]
 BV bounds    x[57]
 BV bounds    x[58]
 BV bounds    x[59]
 BV bounds    x[60]
 BV bounds    x[61]
 BV bounds    x[62]
 BV bounds    x[63]
 BV bounds    x[64]
 BV bounds    x[65]
 BV bounds    x[66]
 BV bounds    x[67]
 BV bounds    x[68]
 BV bounds    x[69]
 BV bounds    x[70]
 BV bounds    x[71]
 BV bounds    x[72]
 BV bounds    x[73]
 BV bounds    x[74]
 BV bounds    x[75]
 BV bounds    x[76]
 BV bounds    x[77]
 BV bounds    x[78]
 BV bounds    x[79]
 BV bounds    x[80]
 BV bounds    x[81]
 BV bounds    x[82]
 BV bounds    x[83]
 BV bounds    x[84]
 BV bounds    x[85]
 BV bounds    x[86]
 BV bounds    x[87]
 BV bounds    x[88]
 BV bounds    x[89]
 BV bounds    x[90]
 BV bounds    x[91]
 BV bounds    x[92]
 BV bounds    x[93]
 BV bounds    x[94]
 BV bounds    x[95]
 BV bounds    x[96]
 BV bounds    x[97]
 BV bounds    x[98]
 BV bounds    x[99]
 BV bounds    x[100]
ENDATA
